50
1000
240
239
238
238
237
236
234
232
228
226
225
222
218
215
213
211
210
210
206
204
203
203
203
202
201
200
199
197
196
196
195
188
188
188
187
186
185
184
182
181
180
178
177
175
169
167
166
164
164
163
